CMPL model generation - running

CMPL version: 1.11.0
Authors: Thomas Schleiff, Mike Steglich
Distributed under the GPLv3 

create model instance ...
write model instance ...
CMPL model generation - finished

Solver - running


Welcome to IBM(R) ILOG(R) CPLEX(R) Interactive Optimizer 12.7.1.0
  with Simplex, Mixed Integer & Barrier Optimizers
5725-A06 5725-A29 5724-Y48 5724-Y49 5724-Y54 5724-Y55 5655-Y21
Copyright IBM Corp. 1988, 2017.  All Rights Reserved.

Type 'help' for a list of available commands.
Type 'help' followed by a command name for more
information on commands.

CPLEX> Specified objective sense: MINIMIZE
Selected objective  name:  line[1]
Selected RHS        name:  RHS
Selected bound      name:  BOUND
Problem '/tmp/cmpl.T24801.mps' read.
Read time = 0.06 sec. (8.20 ticks)
CPLEX> CPXPARAM_Read_APIEncoding                        "UTF-8"
Tried aggregator 3 times.
MIP Presolve eliminated 18894 rows and 30027 columns.
MIP Presolve modified 340 coefficients.
Aggregator did 914 substitutions.
Reduced MIP has 2547 rows, 3652 columns, and 10654 nonzeros.
Reduced MIP has 3484 binaries, 0 generals, 0 SOSs, and 0 indicators.
Presolve time = 0.06 sec. (42.71 ticks)
Found incumbent of value 2673.194280 after 0.12 sec. (78.14 ticks)
Probing fixed 34 vars, tightened 0 bounds.
Probing time = 0.01 sec. (4.95 ticks)
Tried aggregator 1 time.
MIP Presolve eliminated 0 rows and 34 columns.
MIP Presolve modified 262 coefficients.
Reduced MIP has 2547 rows, 3618 columns, and 10586 nonzeros.
Reduced MIP has 3618 binaries, 0 generals, 0 SOSs, and 0 indicators.
Presolve time = 0.01 sec. (10.22 ticks)
Probing time = 0.01 sec. (2.72 ticks)
Clique table members: 6538.
MIP emphasis: balance optimality and feasibility.
MIP search method: dynamic search.
Parallel mode: none, using 1 thread.
Root relaxation solution time = 0.01 sec. (9.57 ticks)

        Nodes                                         Cuts/
   Node  Left     Objective  IInf  Best Integer    Best Bound    ItCnt     Gap

*     0+    0                         2673.1943        1.9708            99.93%
*     0     0      integral     0      779.3668      779.3668      536    0.00%
Elapsed time = 0.18 sec. (113.86 ticks, tree = 0.00 MB, solutions = 2)

Root node processing (before b&c):
  Real time             =    0.19 sec. (115.15 ticks)
Sequential b&c:
  Real time             =    0.00 sec. (0.00 ticks)
                          ------------
Total (root+branch&cut) =    0.19 sec. (115.15 ticks)

Solution pool: 2 solutions saved.

MIP - Integer optimal solution:  Objective =  7.7936682700e+02
Solution time =    0.19 sec.  Iterations = 536  Nodes = 0
Deterministic time = 115.25 ticks  (619.91 ticks/sec)

CPLEX> Incumbent solution written to file '/tmp/cmpl.T24801.gsol'.
CPLEX> 
CMPL: Time used for model generation: 0 seconds
CMPL: Time used for solving the model: 1 seconds


Solution written to ASCII file: results/output_generated_conf_0.9/2017-01-09-4/fair-nonlinear.sol

Solver - finished
